logs/miss/qp/miss-05-30-1.lp
\ LP format - for model browsing. Use MPS format to capture full model detail.
Minimize
  x0 + x1 + x2 + x3 + x4 + x5 + x6 + x7 + x8 + x9 + x10 + x11 + x12 + x13
   + x14 + x15 + x16 + x17 + x18 + x19 + x20 + x21 + x22 + x23 + x24 + x25
   + x26 + x27 + x28 + x29 + x30 + x31 + x32 + x33 + x34 + x35 + x36 + x37
   + x38 + x39 + x40 + x41 + x42 + x43 + x44 + x45 + x46 + x47 + x48 + x49
   + x50 + x51 + x52 + x53 + x54 + x55 + x56 + x57 + x58 + x59 + x60 + x61
   + x62 + x63 + x64 + x65 + x66 + x67 + x68 + x69 + x70 + x71 + x72 + x73
   + x74 + x75 + x76 + x77 + x78 + x79 + x80 + x81 + x82 + x83 + x84 + x85
   + x86 + x87 + x88 + x89 + x90 + x91 + x92 + x93 + x94 + x95 + x96 + x97
   + x98 + x99 + x100 + x101 + x102 + x103 + x104 + x105 + x106 + x107
   + x108 + x109 + x110 + x111 + x112 + x113 + x114 + x115 + x116 + x117
   + x118 + x119 + x120 + x121 + x122 + x123 + x124 + x125 + x126 + x127
   + x128 + x129 + x130 + x131 + x132 + x133 + x134 + x135 + x136 + x137
   + x138 + x139 + x140 + x141 + x142 + x143 + x144 + x145 + x146 + x147
   + x148 + x149 + x150 + x151 + x152 + x153 + x154 + x155 + x156 + x157
   + x158 + x159 + x160 + x161 + x162 + x163 + x164 + x165
Subject To
 R0: x0 = 1
 qc0: [ x0 * x7 + x1 * x8 + x2 * x9 + x3 * x10 + x4 * x11 + x5 * x12
   + x6 * x13 + x7 * x14 + x8 * x15 + x9 * x16 + x10 * x17 + x11 * x18
   + x12 * x19 + x13 * x20 + x14 * x21 + x15 * x22 + x16 * x23 + x17 * x24
   + x18 * x25 + x19 * x26 + x20 * x27 + x21 * x28 + x22 * x29 + x23 * x30
   + x24 * x31 + x25 * x32 + x26 * x33 + x27 * x34 + x28 * x35 + x29 * x36
   + x30 * x37 + x31 * x38 + x32 * x39 + x33 * x40 + x34 * x41 + x35 * x42
   + x36 * x43 + x37 * x44 + x38 * x45 + x39 * x46 + x40 * x47 + x41 * x48
   + x42 * x49 + x43 * x50 + x44 * x51 + x45 * x52 + x46 * x53 + x47 * x54
   + x48 * x55 + x49 * x56 + x50 * x57 + x51 * x58 + x52 * x59 + x53 * x60
   + x54 * x61 + x55 * x62 + x56 * x63 + x57 * x64 + x58 * x65 + x59 * x66
   + x60 * x67 + x61 * x68 + x62 * x69 + x63 * x70 + x64 * x71 + x65 * x72
   + x66 * x73 + x67 * x74 + x68 * x75 + x69 * x76 + x70 * x77 + x71 * x78
   + x72 * x79 + x73 * x80 + x74 * x81 + x75 * x82 + x76 * x83 + x77 * x84
   + x78 * x85 + x79 * x86 + x80 * x87 + x81 * x88 + x82 * x89 + x83 * x90
   + x84 * x91 + x85 * x92 + x86 * x93 + x87 * x94 + x88 * x95 + x89 * x96
   + x90 * x97 + x91 * x98 + x92 * x99 + x93 * x100 + x94 * x101
   + x95 * x102 + x96 * x103 + x97 * x104 + x98 * x105 + x99 * x106
   + x100 * x107 + x101 * x108 + x102 * x109 + x103 * x110 + x104 * x111
   + x105 * x112 + x106 * x113 + x107 * x114 + x108 * x115 + x109 * x116
   + x110 * x117 + x111 * x118 + x112 * x119 + x113 * x120 + x114 * x121
   + x115 * x122 + x116 * x123 + x117 * x124 + x118 * x125 + x119 * x126
   + x120 * x127 + x121 * x128 + x122 * x129 + x123 * x130 + x124 * x131
   + x125 * x132 + x126 * x133 + x127 * x134 + x128 * x135 + x129 * x136
   + x130 * x137 + x131 * x138 + x132 * x139 + x133 * x140 + x134 * x141
   + x135 * x142 + x136 * x143 + x137 * x144 + x138 * x145 + x139 * x146
   + x140 * x147 + x141 * x148 + x142 * x149 + x143 * x150 + x144 * x151
   + x145 * x152 + x146 * x153 + x147 * x154 + x148 * x155 + x149 * x156
   + x150 * x157 + x151 * x158 + x152 * x159 + x153 * x160 + x154 * x161
   + x155 * x162 + x156 * x163 + x157 * x164 + x158 * x165 ] >= 1
 qc1: [ x0 * x26 + x1 * x27 + x2 * x28 + x3 * x29 + x4 * x30 + x5 * x31
   + x6 * x32 + x7 * x33 + x8 * x34 + x9 * x35 + x10 * x36 + x11 * x37
   + x12 * x38 + x13 * x39 + x14 * x40 + x15 * x41 + x16 * x42 + x17 * x43
   + x18 * x44 + x19 * x45 + x20 * x46 + x21 * x47 + x22 * x48 + x23 * x49
   + x24 * x50 + x25 * x51 + x26 * x52 + x27 * x53 + x28 * x54 + x29 * x55
   + x30 * x56 + x31 * x57 + x32 * x58 + x33 * x59 + x34 * x60 + x35 * x61
   + x36 * x62 + x37 * x63 + x38 * x64 + x39 * x65 + x40 * x66 + x41 * x67
   + x42 * x68 + x43 * x69 + x44 * x70 + x45 * x71 + x46 * x72 + x47 * x73
   + x48 * x74 + x49 * x75 + x50 * x76 + x51 * x77 + x52 * x78 + x53 * x79
   + x54 * x80 + x55 * x81 + x56 * x82 + x57 * x83 + x58 * x84 + x59 * x85
   + x60 * x86 + x61 * x87 + x62 * x88 + x63 * x89 + x64 * x90 + x65 * x91
   + x66 * x92 + x67 * x93 + x68 * x94 + x69 * x95 + x70 * x96 + x71 * x97
   + x72 * x98 + x73 * x99 + x74 * x100 + x75 * x101 + x76 * x102
   + x77 * x103 + x78 * x104 + x79 * x105 + x80 * x106 + x81 * x107
   + x82 * x108 + x83 * x109 + x84 * x110 + x85 * x111 + x86 * x112
   + x87 * x113 + x88 * x114 + x89 * x115 + x90 * x116 + x91 * x117
   + x92 * x118 + x93 * x119 + x94 * x120 + x95 * x121 + x96 * x122
   + x97 * x123 + x98 * x124 + x99 * x125 + x100 * x126 + x101 * x127
   + x102 * x128 + x103 * x129 + x104 * x130 + x105 * x131 + x106 * x132
   + x107 * x133 + x108 * x134 + x109 * x135 + x110 * x136 + x111 * x137
   + x112 * x138 + x113 * x139 + x114 * x140 + x115 * x141 + x116 * x142
   + x117 * x143 + x118 * x144 + x119 * x145 + x120 * x146 + x121 * x147
   + x122 * x148 + x123 * x149 + x124 * x150 + x125 * x151 + x126 * x152
   + x127 * x153 + x128 * x154 + x129 * x155 + x130 * x156 + x131 * x157
   + x132 * x158 + x133 * x159 + x134 * x160 + x135 * x161 + x136 * x162
   + x137 * x163 + x138 * x164 + x139 * x165 ] >= 1
 qc2: [ x0 * x29 + x1 * x30 + x2 * x31 + x3 * x32 + x4 * x33 + x5 * x34
   + x6 * x35 + x7 * x36 + x8 * x37 + x9 * x38 + x10 * x39 + x11 * x40
   + x12 * x41 + x13 * x42 + x14 * x43 + x15 * x44 + x16 * x45 + x17 * x46
   + x18 * x47 + x19 * x48 + x20 * x49 + x21 * x50 + x22 * x51 + x23 * x52
   + x24 * x53 + x25 * x54 + x26 * x55 + x27 * x56 + x28 * x57 + x29 * x58
   + x30 * x59 + x31 * x60 + x32 * x61 + x33 * x62 + x34 * x63 + x35 * x64
   + x36 * x65 + x37 * x66 + x38 * x67 + x39 * x68 + x40 * x69 + x41 * x70
   + x42 * x71 + x43 * x72 + x44 * x73 + x45 * x74 + x46 * x75 + x47 * x76
   + x48 * x77 + x49 * x78 + x50 * x79 + x51 * x80 + x52 * x81 + x53 * x82
   + x54 * x83 + x55 * x84 + x56 * x85 + x57 * x86 + x58 * x87 + x59 * x88
   + x60 * x89 + x61 * x90 + x62 * x91 + x63 * x92 + x64 * x93 + x65 * x94
   + x66 * x95 + x67 * x96 + x68 * x97 + x69 * x98 + x70 * x99 + x71 * x100
   + x72 * x101 + x73 * x102 + x74 * x103 + x75 * x104 + x76 * x105
   + x77 * x106 + x78 * x107 + x79 * x108 + x80 * x109 + x81 * x110
   + x82 * x111 + x83 * x112 + x84 * x113 + x85 * x114 + x86 * x115
   + x87 * x116 + x88 * x117 + x89 * x118 + x90 * x119 + x91 * x120
   + x92 * x121 + x93 * x122 + x94 * x123 + x95 * x124 + x96 * x125
   + x97 * x126 + x98 * x127 + x99 * x128 + x100 * x129 + x101 * x130
   + x102 * x131 + x103 * x132 + x104 * x133 + x105 * x134 + x106 * x135
   + x107 * x136 + x108 * x137 + x109 * x138 + x110 * x139 + x111 * x140
   + x112 * x141 + x113 * x142 + x114 * x143 + x115 * x144 + x116 * x145
   + x117 * x146 + x118 * x147 + x119 * x148 + x120 * x149 + x121 * x150
   + x122 * x151 + x123 * x152 + x124 * x153 + x125 * x154 + x126 * x155
   + x127 * x156 + x128 * x157 + x129 * x158 + x130 * x159 + x131 * x160
   + x132 * x161 + x133 * x162 + x134 * x163 + x135 * x164 + x136 * x165 ]
   >= 1
 qc3: [ x0 * x48 + x1 * x49 + x2 * x50 + x3 * x51 + x4 * x52 + x5 * x53
   + x6 * x54 + x7 * x55 + x8 * x56 + x9 * x57 + x10 * x58 + x11 * x59
   + x12 * x60 + x13 * x61 + x14 * x62 + x15 * x63 + x16 * x64 + x17 * x65
   + x18 * x66 + x19 * x67 + x20 * x68 + x21 * x69 + x22 * x70 + x23 * x71
   + x24 * x72 + x25 * x73 + x26 * x74 + x27 * x75 + x28 * x76 + x29 * x77
   + x30 * x78 + x31 * x79 + x32 * x80 + x33 * x81 + x34 * x82 + x35 * x83
   + x36 * x84 + x37 * x85 + x38 * x86 + x39 * x87 + x40 * x88 + x41 * x89
   + x42 * x90 + x43 * x91 + x44 * x92 + x45 * x93 + x46 * x94 + x47 * x95
   + x48 * x96 + x49 * x97 + x50 * x98 + x51 * x99 + x52 * x100
   + x53 * x101 + x54 * x102 + x55 * x103 + x56 * x104 + x57 * x105
   + x58 * x106 + x59 * x107 + x60 * x108 + x61 * x109 + x62 * x110
   + x63 * x111 + x64 * x112 + x65 * x113 + x66 * x114 + x67 * x115
   + x68 * x116 + x69 * x117 + x70 * x118 + x71 * x119 + x72 * x120
   + x73 * x121 + x74 * x122 + x75 * x123 + x76 * x124 + x77 * x125
   + x78 * x126 + x79 * x127 + x80 * x128 + x81 * x129 + x82 * x130
   + x83 * x131 + x84 * x132 + x85 * x133 + x86 * x134 + x87 * x135
   + x88 * x136 + x89 * x137 + x90 * x138 + x91 * x139 + x92 * x140
   + x93 * x141 + x94 * x142 + x95 * x143 + x96 * x144 + x97 * x145
   + x98 * x146 + x99 * x147 + x100 * x148 + x101 * x149 + x102 * x150
   + x103 * x151 + x104 * x152 + x105 * x153 + x106 * x154 + x107 * x155
   + x108 * x156 + x109 * x157 + x110 * x158 + x111 * x159 + x112 * x160
   + x113 * x161 + x114 * x162 + x115 * x163 + x116 * x164 + x117 * x165 ]
   >= 1
 qc4: [ x0 * x55 + x1 * x56 + x2 * x57 + x3 * x58 + x4 * x59 + x5 * x60
   + x6 * x61 + x7 * x62 + x8 * x63 + x9 * x64 + x10 * x65 + x11 * x66
   + x12 * x67 + x13 * x68 + x14 * x69 + x15 * x70 + x16 * x71 + x17 * x72
   + x18 * x73 + x19 * x74 + x20 * x75 + x21 * x76 + x22 * x77 + x23 * x78
   + x24 * x79 + x25 * x80 + x26 * x81 + x27 * x82 + x28 * x83 + x29 * x84
   + x30 * x85 + x31 * x86 + x32 * x87 + x33 * x88 + x34 * x89 + x35 * x90
   + x36 * x91 + x37 * x92 + x38 * x93 + x39 * x94 + x40 * x95 + x41 * x96
   + x42 * x97 + x43 * x98 + x44 * x99 + x45 * x100 + x46 * x101
   + x47 * x102 + x48 * x103 + x49 * x104 + x50 * x105 + x51 * x106
   + x52 * x107 + x53 * x108 + x54 * x109 + x55 * x110 + x56 * x111
   + x57 * x112 + x58 * x113 + x59 * x114 + x60 * x115 + x61 * x116
   + x62 * x117 + x63 * x118 + x64 * x119 + x65 * x120 + x66 * x121
   + x67 * x122 + x68 * x123 + x69 * x124 + x70 * x125 + x71 * x126
   + x72 * x127 + x73 * x128 + x74 * x129 + x75 * x130 + x76 * x131
   + x77 * x132 + x78 * x133 + x79 * x134 + x80 * x135 + x81 * x136
   + x82 * x137 + x83 * x138 + x84 * x139 + x85 * x140 + x86 * x141
   + x87 * x142 + x88 * x143 + x89 * x144 + x90 * x145 + x91 * x146
   + x92 * x147 + x93 * x148 + x94 * x149 + x95 * x150 + x96 * x151
   + x97 * x152 + x98 * x153 + x99 * x154 + x100 * x155 + x101 * x156
   + x102 * x157 + x103 * x158 + x104 * x159 + x105 * x160 + x106 * x161
   + x107 * x162 + x108 * x163 + x109 * x164 + x110 * x165 ] >= 1
Bounds
Binaries
 x0 x1 x2 x3 x4 x5 x6 x7 x8 x9 x10 x11 x12 x13 x14 x15 x16 x17 x18 x19 x20
 x21 x22 x23 x24 x25 x26 x27 x28 x29 x30 x31 x32 x33 x34 x35 x36 x37 x38
 x39 x40 x41 x42 x43 x44 x45 x46 x47 x48 x49 x50 x51 x52 x53 x54 x55 x56
 x57 x58 x59 x60 x61 x62 x63 x64 x65 x66 x67 x68 x69 x70 x71 x72 x73 x74
 x75 x76 x77 x78 x79 x80 x81 x82 x83 x84 x85 x86 x87 x88 x89 x90 x91 x92
 x93 x94 x95 x96 x97 x98 x99 x100 x101 x102 x103 x104 x105 x106 x107 x108
 x109 x110 x111 x112 x113 x114 x115 x116 x117 x118 x119 x120 x121 x122 x123
 x124 x125 x126 x127 x128 x129 x130 x131 x132 x133 x134 x135 x136 x137 x138
 x139 x140 x141 x142 x143 x144 x145 x146 x147 x148 x149 x150 x151 x152 x153
 x154 x155 x156 x157 x158 x159 x160 x161 x162 x163 x164 x165
End
