logs/miss/qp/miss-05-30-1.log

Gurobi 8.1.1 (win64) logging started 11/26/19 09:55:58

Changed value of parameter LogFile to logs/miss/qp/miss-05-30-1.log
   Prev: gurobi.log  Default: 
Changed value of parameter LogToConsole to 0
   Prev: 1  Min: 0  Max: 1  Default: 1
Changed value of parameter TimeLimit to 3600.0
   Prev: 1e+100  Min: 0.0  Max: 1e+100  Default: 1e+100
Optimize a model with 1 rows, 166 columns and 1 nonzeros
Model has 5 quadratic constraints
Variable types: 0 continuous, 166 integer (166 binary)
Coefficient statistics:
  Matrix range     [1e+00, 1e+00]
  QMatrix range    [1e+00, 1e+00]
  Objective range  [1e+00, 1e+00]
  Bounds range     [1e+00, 1e+00]
  RHS range        [1e+00, 1e+00]
  QRHS range       [1e+00, 1e+00]
Found heuristic solution: objective 166.0000000
Presolve removed 1 rows and 1 columns
Presolve time: 0.02s
Presolved: 0 rows, 165 columns, 0 nonzeros
Variable types: 0 continuous, 165 integer (165 binary)

Root relaxation: objective 1.000000e+00, 0 iterations, 0.00 seconds

    Nodes    |    Current Node    |     Objective Bounds      |     Work
 Expl Unexpl |  Obj  Depth IntInf | Incumbent    BestBd   Gap | It/Node Time

     0     0    2.00000    0    2  166.00000    2.00000  98.8%     -    0s
     0     0    2.00000    0    2  166.00000    2.00000  98.8%     -    0s
     0     0    2.00000    0    2  166.00000    2.00000  98.8%     -    0s
H    0     0                       6.0000000    2.00000  66.7%     -    0s
H    0     0                       5.0000000    2.00000  60.0%     -    0s
     0     2    2.00000    0    2    5.00000    2.00000  60.0%     -    0s
  1016   343    4.00000   74    -    5.00000    3.00000  40.0%   1.5    5s
  1727   792    3.00000   23    2    5.00000    3.00000  40.0%   1.4   12s
  1731   796    3.00000   45    2    5.00000    3.00000  40.0%   2.8   17s
H 1732   757                       4.0000000    3.00000  25.0%   2.8   19s
  1733   757    4.00000   49  738    4.00000    3.00000  25.0%   2.8   20s
  1735   759    4.00000   51  410    4.00000    3.00000  25.0%   2.8   25s
  1736   759    4.00000   51  543    4.00000    3.00000  25.0%   2.8   30s
  1738   762    4.00000   67    2    4.00000    3.00000  25.0%   7.1   43s

Explored 1739 nodes (13464 simplex iterations) in 43.84 seconds
Thread count was 4 (of 4 available processors)

Solution count 4: 4 5 6 166 

Optimal solution found (tolerance 1.00e-04)
Best objective 4.000000000000e+00, best bound 4.000000000000e+00, gap 0.0000%
Warning: Q constraint 0 doesn't have a name
